15 2 
6237	6237	
25	322	589	
322	415	556	
492	951	1774	
53	573	937	
716	978	1913	
865	728	1129	
694	488	682	
824	795	1308	
526	583	980	
178	616	1090	
5	39	67	
629	724	1328	
787	918	1419	
282	62	72	
209	125	155	
